500
50 50
1 40 713
2 40 91
3 40 701
4 40 429
5 40 71
6 40 959
7 40 287
8 40 332
9 40 667
10 40 216
11 40 646
12 40 211
13 40 714
14 40 977
15 40 90
16 40 485
17 40 818
18 40 397
19 40 508
20 40 369
21 39 809
22 39 743
23 39 612
24 39 507
25 39 162
26 39 813
27 39 663
28 39 76
29 39 653
30 39 16
31 39 472
32 39 732
33 39 215
34 39 358
35 39 133
36 39 277
37 38 808
38 38 498
39 38 339
40 38 865
41 38 571
42 38 847
43 38 171
44 38 413
45 38 451
46 38 471
47 38 642
48 38 477
49 37 94
50 37 478
51 37 595
52 37 218
53 37 318
54 37 446
55 37 547
56 37 93
57 37 955
58 37 214
59 37 740
60 36 458
61 36 399
62 36 56
63 36 442
64 36 899
65 36 945
66 36 227
67 36 686
68 36 913
69 36 855
70 36 642
71 36 953
72 36 365
73 36 701
74 36 587
75 36 573
76 36 68
77 35 404
78 35 193
79 35 120
80 35 919
81 35 574
82 35 843
83 35 504
84 35 448
85 35 437
86 35 172
87 35 971
88 35 409
89 35 737
90 34 994
91 34 627
92 34 610
93 34 253
94 34 377
95 34 745
96 34 378
97 34 71
98 34 120
99 34 753
100 33 585
101 33 350
102 33 173
103 33 113
104 33 211
105 33 199
106 33 305
107 33 84
108 33 116
109 33 440
110 33 430
111 33 841
112 32 876
113 32 597
114 32 884
115 32 423
116 32 175
117 32 756
118 32 508
119 32 105
120 32 971
121 32 438
122 32 117
123 32 580
124 32 979
125 32 719
126 32 512
127 32 505
128 31 368
129 31 51
130 31 772
131 31 606
132 31 556
133 31 891
134 31 538
135 31 325
136 31 898
137 30 391
138 30 369
139 30 538
140 30 315
141 30 779
142 30 509
143 30 951
144 30 521
145 30 127
146 30 482
147 30 405
148 30 334
149 30 879
150 30 42
151 30 810
152 30 179
153 29 686
154 29 545
155 29 934
156 29 895
157 29 494
158 29 599
159 29 76
160 29 789
161 29 824
162 29 101
163 29 70
164 29 832
165 29 519
166 28 245
167 28 986
168 28 731
169 28 394
170 28 402
171 28 778
172 28 406
173 28 100
174 28 105
175 28 195
176 28 740
177 28 831
178 28 963
179 28 520
180 28 663
181 28 835
182 28 201
183 28 244
184 27 315
185 27 441
186 27 116
187 27 920
188 27 386
189 27 811
190 27 777
191 27 802
192 27 73
193 27 617
194 27 141
195 27 755
196 27 413
197 27 186
198 27 178
199 27 480
200 27 277
201 26 412
202 26 910
203 26 647
204 26 607
205 26 683
206 26 38
207 26 873
208 26 562
209 26 441
210 26 399
211 26 327
212 26 485
213 26 327
214 26 201
215 25 68
216 25 56
217 25 957
218 25 925
219 25 289
220 25 823
221 25 896
222 25 851
223 25 107
224 25 662
225 24 994
226 24 907
227 24 268
228 24 917
229 24 356
230 24 547
231 24 236
232 24 239
233 24 808
234 24 178
235 24 660
236 24 857
237 24 255
238 24 996
239 24 660
240 24 824
241 23 178
242 23 420
243 23 867
244 23 573
245 23 919
246 23 847
247 23 565
248 23 142
249 23 10
250 23 556
251 23 121
252 23 86
253 23 138
254 23 879
255 22 160
256 22 775
257 22 652
258 22 838
259 22 597
260 22 225
261 22 775
262 22 27
263 22 220
264 22 982
265 22 598
266 22 99
267 22 694
268 22 810
269 22 808
270 22 175
271 22 897
272 21 188
273 21 452
274 21 40
275 21 145
276 21 340
277 21 279
278 21 554
279 21 32
280 21 759
281 21 134
282 21 540
283 21 598
284 21 815
285 21 396
286 21 51
287 21 658
288 21 316
289 21 558
290 21 702
291 21 488
292 20 103
293 20 708
294 20 454
295 20 87
296 20 101
297 20 134
298 20 536
299 20 725
300 19 317
301 19 129
302 19 33
303 19 335
304 19 292
305 19 379
306 19 99
307 19 459
308 19 831
309 18 210
310 18 624
311 18 11
312 18 520
313 18 807
314 18 64
315 18 336
316 18 5
317 17 28
318 17 381
319 17 1
320 17 624
321 17 944
322 17 942
323 17 619
324 17 318
325 17 50
326 17 10
327 17 551
328 17 614
329 17 83
330 17 715
331 16 162
332 16 447
333 16 323
334 16 62
335 16 110
336 16 960
337 16 217
338 16 262
339 16 273
340 16 818
341 16 36
342 16 209
343 16 501
344 16 107
345 16 906
346 15 912
347 15 541
348 15 178
349 15 63
350 15 493
351 15 297
352 15 851
353 15 281
354 15 638
355 15 286
356 15 245
357 15 366
358 15 100
359 15 178
360 15 636
361 15 406
362 15 343
363 15 640
364 14 300
365 14 538
366 14 193
367 14 919
368 14 775
369 14 785
370 14 984
371 14 161
372 14 722
373 14 670
374 14 948
375 14 42
376 14 645
377 14 512
378 13 912
379 13 848
380 13 874
381 13 623
382 13 938
383 13 466
384 13 846
385 13 911
386 13 762
387 13 618
388 13 564
389 13 899
390 13 896
391 13 625
392 13 404
393 13 213
394 13 994
395 12 400
396 12 460
397 12 427
398 12 523
399 12 387
400 12 796
401 12 604
402 12 904
403 12 594
404 12 250
405 12 801
406 12 343
407 12 432
408 12 829
409 12 492
410 12 607
411 12 606
412 12 231
413 12 770
414 12 412
415 11 180
416 11 246
417 11 193
418 11 526
419 11 472
420 11 118
421 11 254
422 11 949
423 11 511
424 10 779
425 10 670
426 10 713
427 10 428
428 10 849
429 10 187
430 10 58
431 10 264
432 10 119
433 10 43
434 10 128
435 10 449
436 10 701
437 10 804
438 10 596
439 9 259
440 9 97
441 9 974
442 9 393
443 9 200
444 9 302
445 9 425
446 9 903
447 9 266
448 9 599
449 9 676
450 9 113
451 8 914
452 8 825
453 8 912
454 8 324
455 8 703
456 8 525
457 8 335
458 8 140
459 8 979
460 8 631
461 8 688
462 7 138
463 7 190
464 7 715
465 7 228
466 7 348
467 7 225
468 7 371
469 7 389
470 7 727
471 7 922
472 7 650
473 7 232
474 7 563
475 7 173
476 6 303
477 6 937
478 6 187
479 6 639
480 6 236
481 6 903
482 6 954
483 5 399
484 5 302
485 5 636
486 5 217
487 5 879
488 5 948
489 5 629
490 5 71
491 5 594
492 5 445
493 5 350
494 5 293
495 5 48
496 5 923
497 5 964
498 5 110
499 5 40
500 5 1
